94 74 
62 76 
31 72 
75 68 
39 43 
2 71 
93 71 
1 99 
91 42 
7 42 
9 28 
34 23 
83 45 
66 47 
79 65 
21 73 
91 35 
1 74 
7 76 
42 98 
19 96 
22 65 
68 23 
64 59 
18 23 
53 27 
51 88 
2 87 
33 69 
34 13 
